# Solution for model example
# Objective value = 336000
y_state0_action0 1
y_state0_action1 1
y_state1_action1 1
y_state2_action0 0
y_state2_action1 1
y_state3_action1 1
y_state4_action0 1
y_state4_action1 0
y_state5_action0 0
y_state5_action1 0
y_state6_action1 0
y_state7_action0 0
y_state7_action1 0
y_state8_action1 0
y_state9_action0 0
y_state9_action1 0
y_state10_action0 0
y_state10_action1 0
y_state11_action1 0
y_state12_action0 0
y_state12_action1 0
y_state13_action1 0
y_state14_action0 0
y_state14_action1 0
y_state15_action0 0
y_state15_action1 0
y_state16_action1 0
y_state17_action0 0
y_state17_action1 0
y_state18_action1 0
y_state19_action0 0
y_state20_action0 1
y_state21_action0 0
y_state22_action0 1
y_state23_action0 0
y_state24_action0 0
y_state25_action0 0
y_state26_action0 0
y_state27_action0 0
y_state28_action0 0
y_state29_action0 0
y_state30_action0 0
y_state31_action0 0
y_state32_action1 1
y_state33_action0 1
y_state34_action0 0
y_state35_action0 1
y_state36_action1 0
y_state37_action0 0
y_state38_action0 0
y_state39_action0 0
y_state40_action1 0
y_state41_action0 0
y_state42_action0 0
y_state43_action0 0
y_state44_action1 0
y_state45_action0 0
y_state46_action0 0
y_state47_action0 0
y_state48_action0 1
y_state49_action2 1
y_state50_action2 0
y_state50_action1 0
y_state51_action0 0
y_state52_action0 1
y_state53_action0 0
y_state54_action2 0
y_state55_action2 0
y_state55_action1 0
y_state56_action0 0
y_state57_action0 0
y_state58_action0 0
y_state59_action2 0
y_state60_action2 0
y_state60_action1 0
y_state61_action0 0
y_state62_action0 0
y_state63_action0 0
y_state64_action2 0
y_state65_action2 0
y_state65_action1 0
y_state66_action0 0
y_state67_action0 0
y_state68_action0 1
y_state69_action2 0
y_state70_action2 0
y_state71_action2 0
y_state72_action2 0
y_state72_action1 1
y_state73_action0 1
y_state74_action2 0
y_state75_action2 0
y_state76_action2 0
y_state77_action2 0
y_state77_action1 0
y_state78_action0 0
y_state79_action2 0
y_state80_action2 0
y_state81_action2 0
y_state82_action2 0
y_state82_action1 0
y_state83_action0 0
y_state84_action2 0
y_state85_action2 0
y_state86_action2 0
y_state87_action2 0
y_state88_action0 0
y_state88_action1 1
y_state89_action1 1
y_state90_action0 0
y_state90_action1 1
y_state91_action1 1
y_state92_action0 1
y_state92_action1 0
y_state93_action0 1
y_state93_action1 1
y_state94_action1 1
y_state95_action0 0
y_state95_action1 1
y_state96_action1 1
y_state97_action0 1
y_state97_action1 0
y_state98_action0 0
y_state98_action1 0
y_state99_action1 0
y_state100_action0 0
y_state100_action1 0
y_state101_action1 0
y_state102_action0 0
y_state102_action1 0
y_state103_action0 0
y_state103_action1 0
y_state104_action1 0
y_state105_action0 0
y_state105_action1 0
y_state106_action1 0
y_state107_action0 0
y_state108_action0 0
y_state109_action0 0
y_state110_action0 1
y_state111_action0 1
y_state112_action0 0
y_state113_action0 1
y_state114_action0 0
y_state115_action0 0
y_state116_action0 0
y_state117_action0 0
y_state118_action0 0
y_state119_action0 0
y_state120_action1 0
y_state121_action0 0
y_state122_action0 0
y_state123_action0 1
y_state124_action1 1
y_state125_action0 1
y_state126_action0 0
y_state127_action0 1
y_state128_action1 0
y_state129_action0 0
y_state130_action0 0
y_state131_action0 0
y_state132_action1 0
y_state133_action0 0
y_state134_action0 0
y_state135_action0 0
y_state136_action0 0
y_state137_action2 0
y_state138_action2 0
y_state138_action1 0
y_state139_action0 0
y_state140_action0 1
y_state141_action0 1
y_state142_action2 1
y_state143_action2 0
y_state143_action1 0
y_state144_action0 0
y_state145_action0 1
y_state146_action0 0
y_state147_action2 0
y_state148_action2 0
y_state148_action1 0
y_state149_action0 0
y_state150_action0 0
y_state151_action0 0
y_state152_action2 0
y_state153_action2 0
y_state153_action1 0
y_state154_action0 0
y_state155_action0 0
y_state156_action0 0
y_state157_action2 0
y_state158_action2 0
y_state159_action2 0
y_state160_action2 0
y_state160_action1 1
y_state161_action0 1
y_state162_action2 0
y_state163_action2 0
y_state164_action2 0
y_state165_action2 0
y_state165_action1 1
y_state166_action0 1
y_state167_action2 0
y_state168_action2 0
y_state169_action2 0
y_state170_action2 0
y_state170_action1 0
y_state171_action0 0
y_state172_action2 0
y_state173_action2 0
y_state174_action2 0
y_state175_action2 0
y_state176_action0 0
y_state176_action1 0
y_state177_action1 0
y_state178_action0 0
y_state178_action1 0
y_state179_action1 0
y_state180_action0 0
y_state180_action1 0
y_state181_action0 0
y_state181_action1 1
y_state182_action1 1
y_state183_action0 0
y_state183_action1 1
y_state184_action1 1
y_state185_action0 1
y_state185_action1 0
y_state186_action0 1
y_state186_action1 1
y_state187_action1 1
y_state188_action0 0
y_state188_action1 1
y_state189_action1 1
y_state190_action0 1
y_state190_action1 0
y_state191_action0 0
y_state191_action1 0
y_state192_action1 0
y_state193_action0 0
y_state193_action1 0
y_state194_action1 0
y_state195_action0 0
y_state196_action0 0
y_state197_action0 0
y_state198_action0 0
y_state199_action0 0
y_state200_action0 0
y_state201_action0 1
y_state202_action0 1
y_state203_action0 0
y_state204_action0 1
y_state205_action0 0
y_state206_action0 0
y_state207_action0 0
y_state208_action1 0
y_state209_action0 0
y_state210_action0 0
y_state211_action0 0
y_state212_action1 0
y_state213_action0 0
y_state214_action0 0
y_state215_action0 1
y_state216_action1 1
y_state217_action0 1
y_state218_action0 0
y_state219_action0 1
y_state220_action1 0
y_state221_action0 0
y_state222_action0 0
y_state223_action0 0
y_state224_action0 0
y_state225_action2 0
y_state226_action2 0
y_state226_action1 0
y_state227_action0 0
y_state228_action0 0
y_state229_action0 0
y_state230_action2 0
y_state231_action2 0
y_state231_action1 0
y_state232_action0 0
y_state233_action0 1
y_state234_action0 1
y_state235_action2 1
y_state236_action2 0
y_state236_action1 0
y_state237_action0 0
y_state238_action0 1
y_state239_action0 0
y_state240_action2 0
y_state241_action2 0
y_state241_action1 0
y_state242_action0 0
y_state243_action0 0
y_state244_action0 0
y_state245_action2 0
y_state246_action2 0
y_state247_action2 0
y_state248_action2 0
y_state248_action1 0
y_state249_action0 0
y_state250_action2 0
y_state251_action2 0
y_state252_action2 0
y_state253_action2 0
y_state253_action1 1
y_state254_action0 1
y_state255_action2 0
y_state256_action2 0
y_state257_action2 0
y_state258_action2 0
y_state258_action1 1
y_state259_action0 1
y_state260_action2 0
y_state261_action2 0
y_state262_action2 0
y_state263_action2 0
y_state264_action0 0
y_state264_action1 0
y_state265_action1 0
y_state266_action0 0
y_state266_action1 0
y_state267_action1 0
y_state268_action0 0
y_state268_action1 0
y_state269_action0 0
y_state269_action1 0
y_state270_action1 0
y_state271_action0 0
y_state271_action1 0
y_state272_action1 0
y_state273_action0 0
y_state273_action1 0
y_state274_action0 0
y_state274_action1 1
y_state275_action1 1
y_state276_action0 0
y_state276_action1 1
y_state277_action1 1
y_state278_action0 1
y_state278_action1 0
y_state279_action0 1
y_state279_action1 0
y_state280_action1 0
y_state281_action0 0
y_state281_action1 0
y_state282_action1 0
y_state283_action0 0
y_state284_action0 0
y_state285_action0 0
y_state286_action0 0
y_state287_action0 0
y_state288_action0 0
y_state289_action0 0
y_state290_action0 0
y_state291_action0 0
y_state292_action0 1
y_state293_action0 1
y_state294_action0 0
y_state295_action0 0
y_state296_action1 0
y_state297_action0 0
y_state298_action0 0
y_state299_action0 0
y_state300_action1 0
y_state301_action0 0
y_state302_action0 0
y_state303_action0 0
y_state304_action1 0
y_state305_action0 0
y_state306_action0 0
y_state307_action0 1
y_state308_action1 1
y_state309_action0 1
y_state310_action0 0
y_state311_action0 0
y_state312_action0 0
y_state313_action2 0
y_state314_action2 0
y_state314_action1 0
y_state315_action0 0
y_state316_action0 0
y_state317_action0 0
y_state318_action2 0
y_state319_action2 0
y_state319_action1 0
y_state320_action0 0
y_state321_action0 0
y_state322_action0 0
y_state323_action2 0
y_state324_action2 0
y_state324_action1 0
y_state325_action0 0
y_state326_action0 1
y_state327_action0 1
y_state328_action2 1
y_state329_action2 0
y_state329_action1 0
y_state330_action0 0
y_state331_action0 0
y_state333_action2 0
y_state334_action2 0
y_state335_action2 0
y_state336_action2 0
y_state336_action1 0
y_state338_action2 0
y_state339_action2 0
y_state340_action2 0
y_state341_action2 0
y_state341_action1 0
y_state343_action2 0
y_state344_action2 0
y_state345_action2 0
y_state346_action2 0
y_state346_action1 1
y_state347_action3 1
y_state348_action2 0
y_state349_action2 0
y_state350_action2 0
y_state351_action2 0
x_reward0_state0_lower 3.5999999999998636e+01
x_reward0_state0_upper 3.5999999999970896e+01
x_reward0_state1_lower 3.4999999999998636e+01
x_reward0_state1_upper 3.4999999999970896e+01
x_reward0_state2_lower 3.3999999999998636e+01
x_reward0_state2_upper 3.3999999999970896e+01
x_reward0_state3_lower 3.2999999999998636e+01
x_reward0_state3_upper 3.2999999999970896e+01
x_reward0_state4_lower 3.1999999999998636e+01
x_reward0_state4_upper 3.1999999999970896e+01
x_reward0_state5_lower 7
x_reward0_state5_upper 1.0309999999999709e+03
x_reward0_state6_lower 1008
x_reward0_state6_upper 2.0299999999999709e+03
x_reward0_state7_lower 7
x_reward0_state7_upper 3.0289999999999709e+03
x_reward0_state8_lower 1007
x_reward0_state8_upper 4.0279999999999709e+03
x_reward0_state9_lower 6
x_reward0_state9_upper 5.0269999999999709e+03
x_reward0_state10_lower 7
x_reward0_state10_upper 6.0259999999999709e+03
x_reward0_state11_lower 1008
x_reward0_state11_upper 7.0249999999999709e+03
x_reward0_state12_lower 7
x_reward0_state12_upper 8.0239999999999709e+03
x_reward0_state13_lower 1007
x_reward0_state13_upper 9022.99999999997
x_reward0_state14_lower 6
x_reward0_state14_upper 1.0021999999999971e+04
x_reward0_state15_lower 7
x_reward0_state15_upper 1.1020999999999971e+04
x_reward0_state16_lower 1008
x_reward0_state16_upper 1.2019999999999971e+04
x_reward0_state17_lower 7
x_reward0_state17_upper 1.3018999999999971e+04
x_reward0_state18_lower 3010
x_reward0_state18_upper 1.4017999999999971e+04
x_reward0_state19_lower 2009
x_reward0_state19_upper 1.5016999999999971e+04
x_reward0_state20_lower 3.4999999999998636e+01
x_reward0_state20_upper 3.4999999999970896e+01
x_reward0_state21_lower 3.0349999999999986e+03
x_reward0_state21_upper 1.0329999999999709e+03
x_reward0_state22_lower 3.0999999999998636e+01
x_reward0_state22_upper 3.0999999999970896e+01
x_reward0_state23_lower 5.0319999999999982e+03
x_reward0_state23_upper 2.0299999999999709e+03
x_reward0_state24_lower 2006
x_reward0_state24_upper 4.0279999999999709e+03
x_reward0_state25_lower 5005
x_reward0_state25_upper 6.0259999999999709e+03
x_reward0_state26_lower 6006
x_reward0_state26_upper 7.0249999999999709e+03
x_reward0_state27_lower 2006
x_reward0_state27_upper 9022.99999999997
x_reward0_state28_lower 3005
x_reward0_state28_upper 1.1020999999999971e+04
x_reward0_state29_lower 6006
x_reward0_state29_upper 1.2019999999999971e+04
x_reward0_state30_lower 2006
x_reward0_state30_upper 1.4017999999999971e+04
x_reward0_state31_lower 1008
x_reward0_state31_upper 1.6015999999999971e+04
x_reward0_state32_lower 3.3999999999998636e+01
x_reward0_state32_upper 3.3999999999970896e+01
x_reward0_state33_lower 3.2999999999998636e+01
x_reward0_state33_upper 3.2999999999970896e+01
x_reward0_state34_lower 2.0339999999999986e+03
x_reward0_state34_upper 2.0319999999999709e+03
x_reward0_state35_lower 2.9999999999998636e+01
x_reward0_state35_upper 2.9999999999970896e+01
x_reward0_state36_lower 4.0309999999999986e+03
x_reward0_state36_upper 3.0289999999999709e+03
x_reward0_state37_lower 3.0299999999999986e+03
x_reward0_state37_upper 4.0279999999999709e+03
x_reward0_state38_lower 1005
x_reward0_state38_upper 5.0269999999999709e+03
x_reward0_state39_lower 4004
x_reward0_state39_upper 7.0249999999999709e+03
x_reward0_state40_lower 5005
x_reward0_state40_upper 8.0239999999999709e+03
x_reward0_state41_lower 4004
x_reward0_state41_upper 9022.99999999997
x_reward0_state42_lower 1005
x_reward0_state42_upper 1.0021999999999971e+04
x_reward0_state43_lower 2004
x_reward0_state43_upper 1.2019999999999971e+04
x_reward0_state44_lower 5005
x_reward0_state44_upper 1.3018999999999971e+04
x_reward0_state45_lower 4004
x_reward0_state45_upper 1.4017999999999971e+04
x_reward0_state46_lower 1005
x_reward0_state46_upper 1.5016999999999971e+04
x_reward0_state47_lower 7
x_reward0_state47_upper 1.7014999999999971e+04
x_reward0_state48_lower 3.0999999999998636e+01
x_reward0_state48_upper 3.1000000000004576e+01
x_reward0_state49_lower 3.1999999999998636e+01
x_reward0_state49_upper 3.2000000000004576e+01
x_reward0_state50_lower 1.0329999999999986e+03
x_reward0_state50_upper 3.0309999999999709e+03
x_reward0_state51_lower 4.0339999999999986e+03
x_reward0_state51_upper 4.0299999999999709e+03
x_reward0_state52_lower 2.8999999999998636e+01
x_reward0_state52_upper 2.8999999999970896e+01
x_reward0_state53_lower 1.0279999999999986e+03
x_reward0_state53_upper 999
x_reward0_state54_lower 2.0289999999999986e+03
x_reward0_state54_upper 0
x_reward0_state55_lower 4
x_reward0_state55_upper 6.0259999999999709e+03
x_reward0_state56_lower 4.0309999999999986e+03
x_reward0_state56_upper 7.0249999999999709e+03
x_reward0_state57_lower 3003
x_reward0_state57_upper 8.0239999999999709e+03
x_reward0_state58_lower 2002
x_reward0_state58_upper 999
x_reward0_state59_lower 3003
x_reward0_state59_upper 0
x_reward0_state60_lower 4
x_reward0_state60_upper 1.1020999999999971e+04
x_reward0_state61_lower 5005
x_reward0_state61_upper 1.2019999999999971e+04
x_reward0_state62_lower 1003
x_reward0_state62_upper 1.3018999999999971e+04
x_reward0_state63_lower 2002
x_reward0_state63_upper 999
x_reward0_state64_lower 3003
x_reward0_state64_upper 0
x_reward0_state65_lower 4
x_reward0_state65_upper 1.6015999999999971e+04
x_reward0_state66_lower 5005
x_reward0_state66_upper 1.7014999999999971e+04
x_reward0_state67_lower 6006
x_reward0_state67_upper 1.8013999999999971e+04
x_reward0_state68_lower 2.9999999999998636e+01
x_reward0_state68_upper 3.0000000000004576e+01
x_reward0_state69_lower 1.0309999999999986e+03
x_reward0_state69_upper 1998
x_reward0_state70_lower 2.0319999999999986e+03
x_reward0_state70_upper 999
x_reward0_state71_lower 3.0329999999999986e+03
x_reward0_state71_upper 0
x_reward0_state72_lower 2.7999999999998636e+01
x_reward0_state72_upper 2.7999999999970896e+01
x_reward0_state73_lower 2.6999999999998636e+01
x_reward0_state73_upper 2.7000000000001364e+01
x_reward0_state74_lower 1.0279999999999986e+03
x_reward0_state74_upper 999
x_reward0_state75_lower 2.0289999999999986e+03
x_reward0_state75_upper 0
x_reward0_state76_lower 3.0299999999999986e+03
x_reward0_state76_upper 0
x_reward0_state77_lower 2002
x_reward0_state77_upper 9022.99999999997
x_reward0_state78_lower 1001
x_reward0_state78_upper 0
x_reward0_state79_lower 2002
x_reward0_state79_upper 999
x_reward0_state80_lower 3003
x_reward0_state80_upper 0
x_reward0_state81_lower 4004
x_reward0_state81_upper 0
x_reward0_state82_lower 2
x_reward0_state82_upper 1.4017999999999971e+04
x_reward0_state83_lower 1001
x_reward0_state83_upper 0
x_reward0_state84_lower 2002
x_reward0_state84_upper 999
x_reward0_state85_lower 3003
x_reward0_state85_upper 0
x_reward0_state86_lower 4004
x_reward0_state86_upper 0
x_reward0_state87_lower 5005
x_reward0_state87_upper 1.9012999999999971e+04
x_reward0_state88_lower 2.8999999999998636e+01
x_reward0_state88_upper 2.9000000000004576e+01
x_reward0_state89_lower 2.8000000000002363e+01
x_reward0_state89_upper 2.8000000000000810e+01
x_reward0_state90_lower 2.7000000000006114e+01
x_reward0_state90_upper 2.6999999999997058e+01
x_reward0_state91_lower 2.6000000000009841e+01
x_reward0_state91_upper 2.5999999999993332e+01
x_reward0_state92_lower 2.5000000000013593e+01
x_reward0_state92_upper 2.4999999999989580e+01
x_reward0_state93_lower 2.5999999999998636e+01
x_reward0_state93_upper 2.6000000000001364e+01
x_reward0_state94_lower 2.4999999999998636e+01
x_reward0_state94_upper 2.5000000000001364e+01
x_reward0_state95_lower 2.3999999999998636e+01
x_reward0_state95_upper 2.4000000000001364e+01
x_reward0_state96_lower 2.2999999999998636e+01
x_reward0_state96_upper 2.3000000000001364e+01
x_reward0_state97_lower 2.1999999999998636e+01
x_reward0_state97_upper 2.2000000000001364e+01
x_reward0_state98_lower 0
x_reward0_state98_upper 0
x_reward0_state99_lower 1004
x_reward0_state99_upper 9.9899999999994907e+02
x_reward0_state100_lower 3
x_reward0_state100_upper 1.9979999999999491e+03
x_reward0_state101_lower 1002
x_reward0_state101_upper 2.9969999999999491e+03
x_reward0_state102_lower 1
x_reward0_state102_upper 3.9959999999999491e+03
x_reward0_state103_lower 0
x_reward0_state103_upper 0
x_reward0_state104_lower 1010
x_reward0_state104_upper 9.9899999999995634e+02
x_reward0_state105_lower 9
x_reward0_state105_upper 1.9979999999999563e+03
x_reward0_state106_lower 3012
x_reward0_state106_upper 2.9969999999999563e+03
x_reward0_state107_lower 2011
x_reward0_state107_upper 3.9959999999999563e+03
x_reward0_state108_lower 1.1029999999999998e+04
x_reward0_state108_upper 1.0280000000000045e+03
x_reward0_state109_lower 2011
x_reward0_state109_upper 1.0259999999999970e+03
x_reward0_state110_lower 2.3999999999983643e+01
x_reward0_state110_upper 2.3999999999985853e+01
x_reward0_state111_lower 2.4999999999998636e+01
x_reward0_state111_upper 2.5000000000001364e+01
x_reward0_state112_lower 3.0249999999999986e+03
x_reward0_state112_upper 1.0230000000000014e+03
x_reward0_state113_lower 2.0999999999998863e+01
x_reward0_state113_upper 2.1000000000001080e+01
x_reward0_state114_lower 5022
x_reward0_state114_upper 9.9899999999994907e+02
x_reward0_state115_lower 2006
x_reward0_state115_upper 2.9969999999999491e+03
x_reward0_state116_lower 5007
x_reward0_state116_upper 4.9949999999999491e+03
x_reward0_state117_lower 6008
x_reward0_state117_upper 9.9899999999995634e+02
x_reward0_state118_lower 6008
x_reward0_state118_upper 2.9969999999999563e+03
x_reward0_state119_lower 1010
x_reward0_state119_upper 4.9949999999999563e+03
x_reward0_state120_lower 1.0028999999999998e+04
x_reward0_state120_upper 2.0270000000000045e+03
x_reward0_state121_lower 9.0279999999999982e+03
x_reward0_state121_upper 3.0260000000000045e+03
x_reward0_state122_lower 1010
x_reward0_state122_upper 2.0249999999999970e+03
x_reward0_state123_lower 2.2999999999987395e+01
x_reward0_state123_upper 22.9999999999821
x_reward0_state124_lower 2.3999999999998636e+01
x_reward0_state124_upper 2.4000000000001364e+01
x_reward0_state125_lower 2.2999999999998636e+01
x_reward0_state125_upper 2.3000000000001364e+01
x_reward0_state126_lower 2.0239999999999986e+03
x_reward0_state126_upper 2.0220000000000014e+03
x_reward0_state127_lower 1.9999999999999091e+01
x_reward0_state127_upper 2.0000000000000853e+01
x_reward0_state128_lower 4021
x_reward0_state128_upper 1.9979999999999491e+03
x_reward0_state129_lower 3020
x_reward0_state129_upper 2.9969999999999491e+03
x_reward0_state130_lower 1005
x_reward0_state130_upper 3.9959999999999491e+03
x_reward0_state131_lower 4006
x_reward0_state131_upper 5.9939999999999491e+03
x_reward0_state132_lower 5007
x_reward0_state132_upper 1.9979999999999563e+03
x_reward0_state133_lower 4006
x_reward0_state133_upper 2.9969999999999563e+03
x_reward0_state134_lower 5007
x_reward0_state134_upper 3.9959999999999563e+03
x_reward0_state135_lower 9
x_reward0_state135_upper 5.9939999999999563e+03
x_reward0_state136_lower 7.0259999999999982e+03
x_reward0_state136_upper 999
x_reward0_state137_lower 8.0269999999999982e+03
x_reward0_state137_upper 0
x_reward0_state138_lower 9
x_reward0_state138_upper 3.0239999999999973e+03
x_reward0_state139_lower 1.0028999999999998e+04
x_reward0_state139_upper 4.0229999999999973e+03
x_reward0_state140_lower 2.1999999999991147e+01
x_reward0_state140_upper 2.1999999999978350e+01
x_reward0_state141_lower 2.0999999999998636e+01
x_reward0_state141_upper 2.0999999999970896e+01
x_reward0_state142_lower 2.1999999999998636e+01
x_reward0_state142_upper 2.1999999999970896e+01
x_reward0_state143_lower 1.0229999999999986e+03
x_reward0_state143_upper 3.0210000000000014e+03
x_reward0_state144_lower 4.0239999999999986e+03
x_reward0_state144_upper 4.0200000000000014e+03
x_reward0_state145_lower 1.8999999999999318e+01
x_reward0_state145_upper 1.9000000000000625e+01
x_reward0_state146_lower 1.0179999999999998e+03
x_reward0_state146_upper 999
x_reward0_state147_lower 2.0189999999999998e+03
x_reward0_state147_upper 0
x_reward0_state148_lower 4
x_reward0_state148_upper 4.9949999999999491e+03
x_reward0_state149_lower 4021
x_reward0_state149_upper 5.9939999999999491e+03
x_reward0_state150_lower 3005
x_reward0_state150_upper 6.9929999999999491e+03
x_reward0_state151_lower 2004
x_reward0_state151_upper 999
x_reward0_state152_lower 3005
x_reward0_state152_upper 0
x_reward0_state153_lower 4006
x_reward0_state153_upper 4.9949999999999563e+03
x_reward0_state154_lower 5007
x_reward0_state154_upper 5.9939999999999563e+03
x_reward0_state155_lower 6008
x_reward0_state155_upper 6.9929999999999563e+03
x_reward0_state156_lower 6.0249999999999982e+03
x_reward0_state156_upper 0
x_reward0_state157_lower 7.0259999999999982e+03
x_reward0_state157_upper 999
x_reward0_state158_lower 8.0269999999999982e+03
x_reward0_state158_upper 0
x_reward0_state159_lower 9.0279999999999982e+03
x_reward0_state159_upper 0
x_reward0_state160_lower 20.9999999999949
x_reward0_state160_upper 2.0999999999974598e+01
x_reward0_state161_lower 1.9999999999998636e+01
x_reward0_state161_upper 1.9999999999970896e+01
x_reward0_state162_lower 1.0209999999999986e+03
x_reward0_state162_upper 999
x_reward0_state163_lower 2.0219999999999986e+03
x_reward0_state163_upper 0
x_reward0_state164_lower 3.0229999999999986e+03
x_reward0_state164_upper 0
x_reward0_state165_lower 1.7999999999999545e+01
x_reward0_state165_upper 1.8000000000000398e+01
x_reward0_state166_lower 1.6999999999999773e+01
x_reward0_state166_upper 1.7000000000000227e+01
x_reward0_state167_lower 1.0179999999999998e+03
x_reward0_state167_upper 9.9899999999999272e+02
x_reward0_state168_lower 2.0189999999999998e+03
x_reward0_state168_upper 0
x_reward0_state169_lower 3020
x_reward0_state169_upper 0
x_reward0_state170_lower 2004
x_reward0_state170_upper 7.9919999999999491e+03
x_reward0_state171_lower 1003
x_reward0_state171_upper 0
x_reward0_state172_lower 2004
x_reward0_state172_upper 999
x_reward0_state173_lower 3005
x_reward0_state173_upper 0
x_reward0_state174_lower 4006
x_reward0_state174_upper 4
x_reward0_state175_lower 5007
x_reward0_state175_upper 7.9919999999999563e+03
x_reward0_state176_lower 5.0239999999999982e+03
x_reward0_state176_upper 9.9899999999991269e+02
x_reward0_state177_lower 4.0229999999999986e+03
x_reward0_state177_upper 1.9979999999999127e+03
x_reward0_state178_lower 3.0219999999999986e+03
x_reward0_state178_upper 2.9969999999999127e+03
x_reward0_state179_lower 2.0209999999999986e+03
x_reward0_state179_upper 3.9959999999999127e+03
x_reward0_state180_lower 1.0199999999999986e+03
x_reward0_state180_upper 4.9949999999999127e+03
x_reward0_state181_lower 1.8999999999998636e+01
x_reward0_state181_upper 1.8999999999970896e+01
x_reward0_state182_lower 1.7999999999998636e+01
x_reward0_state182_upper 1.7999999999970896e+01
x_reward0_state183_lower 1.6999999999998636e+01
x_reward0_state183_upper 1.6999999999970896e+01
x_reward0_state184_lower 1.5999999999998636e+01
x_reward0_state184_upper 1.5999999999970896e+01
x_reward0_state185_lower 1.4999999999998636e+01
x_reward0_state185_upper 1.4999999999970896e+01
x_reward0_state186_lower 16
x_reward0_state186_upper 16
x_reward0_state187_lower 15
x_reward0_state187_upper 15
x_reward0_state188_lower 14
x_reward0_state188_upper 14
x_reward0_state189_lower 13
x_reward0_state189_upper 13
x_reward0_state190_lower 12
x_reward0_state190_upper 12
x_reward0_state191_lower 2
x_reward0_state191_upper 999
x_reward0_state192_lower 1014
x_reward0_state192_upper 1998
x_reward0_state193_lower 13
x_reward0_state193_upper 2997
x_reward0_state194_lower 1016
x_reward0_state194_upper 3996
x_reward0_state195_lower 15
x_reward0_state195_upper 4995
x_reward0_state196_lower 11011
x_reward0_state196_upper 1.9979999999999127e+03
x_reward0_state197_lower 11011
x_reward0_state197_upper 3.9959999999999127e+03
x_reward0_state198_lower 5005
x_reward0_state198_upper 5.9939999999999127e+03
x_reward0_state199_lower 6006
x_reward0_state199_upper 1.0179999999999709e+03
x_reward0_state200_lower 2006
x_reward0_state200_upper 1.0159999999999709e+03
x_reward0_state201_lower 14
x_reward0_state201_upper 1.3999999999970896e+01
x_reward0_state202_lower 15
x_reward0_state202_upper 15
x_reward0_state203_lower 3015
x_reward0_state203_upper 1013
x_reward0_state204_lower 11
x_reward0_state204_upper 11
x_reward0_state205_lower 5012
x_reward0_state205_upper 1998
x_reward0_state206_lower 5012
x_reward0_state206_upper 3996
x_reward0_state207_lower 1014
x_reward0_state207_upper 5994
x_reward0_state208_lower 10010
x_reward0_state208_upper 2.9969999999999127e+03
x_reward0_state209_lower 9009
x_reward0_state209_upper 3.9959999999999127e+03
x_reward0_state210_lower 10010
x_reward0_state210_upper 4.9949999999999127e+03
x_reward0_state211_lower 4004
x_reward0_state211_upper 6.9929999999999127e+03
x_reward0_state212_lower 5005
x_reward0_state212_upper 2.0169999999999709e+03
x_reward0_state213_lower 4004
x_reward0_state213_upper 3.0159999999999709e+03
x_reward0_state214_lower 1005
x_reward0_state214_upper 2.0149999999999709e+03
x_reward0_state215_lower 13
x_reward0_state215_upper 1.2999999999970896e+01
x_reward0_state216_lower 14
x_reward0_state216_upper 14
x_reward0_state217_lower 13
x_reward0_state217_upper 13
x_reward0_state218_lower 2014
x_reward0_state218_upper 2012
x_reward0_state219_lower 10
x_reward0_state219_upper 10
x_reward0_state220_lower 4011
x_reward0_state220_upper 2997
x_reward0_state221_lower 3010
x_reward0_state221_upper 3996
x_reward0_state222_lower 4011
x_reward0_state222_upper 4995
x_reward0_state223_lower 13
x_reward0_state223_upper 6993
x_reward0_state224_lower 7007
x_reward0_state224_upper 1998
x_reward0_state225_lower 8008
x_reward0_state225_upper 999
x_reward0_state226_lower 9009
x_reward0_state226_upper 5.9939999999999127e+03
x_reward0_state227_lower 10010
x_reward0_state227_upper 6.9929999999999127e+03
x_reward0_state228_lower 3003
x_reward0_state228_upper 7.9919999999999127e+03
x_reward0_state229_lower 2002
x_reward0_state229_upper 9.9899999999999272e+02
x_reward0_state230_lower 3003
x_reward0_state230_upper 0
x_reward0_state231_lower 4
x_reward0_state231_upper 3.0139999999999709e+03
x_reward0_state232_lower 5005
x_reward0_state232_upper 4.0129999999999709e+03
x_reward0_state233_lower 12
x_reward0_state233_upper 1.1999999999970896e+01
x_reward0_state234_lower 11
x_reward0_state234_upper 11
x_reward0_state235_lower 12
x_reward0_state235_upper 12
x_reward0_state236_lower 1013
x_reward0_state236_upper 3011
x_reward0_state237_lower 1012
x_reward0_state237_upper 4010
x_reward0_state238_lower 9
x_reward0_state238_upper 9
x_reward0_state239_lower 1008
x_reward0_state239_upper 9.9899999999998545e+02
x_reward0_state240_lower 2009
x_reward0_state240_upper 0
x_reward0_state241_lower 3010
x_reward0_state241_upper 5994
x_reward0_state242_lower 4011
x_reward0_state242_upper 6993
x_reward0_state243_lower 5012
x_reward0_state243_upper 7992
x_reward0_state244_lower 6006
x_reward0_state244_upper 2997
x_reward0_state245_lower 7007
x_reward0_state245_upper 1998
x_reward0_state246_lower 8008
x_reward0_state246_upper 999
x_reward0_state247_lower 9009
x_reward0_state247_upper 0
x_reward0_state248_lower 2002
x_reward0_state248_upper 8.9909999999999127e+03
x_reward0_state249_lower 1001
x_reward0_state249_upper 0
x_reward0_state250_lower 2002
x_reward0_state250_upper 9.9899999999997817e+02
x_reward0_state251_lower 3003
x_reward0_state251_upper 0
x_reward0_state252_lower 4004
x_reward0_state252_upper 0
x_reward0_state253_lower 11
x_reward0_state253_upper 1.0999999999970896e+01
x_reward0_state254_lower 10
x_reward0_state254_upper 9.9999999999708962e+00
x_reward0_state255_lower 1011
x_reward0_state255_upper 1998
x_reward0_state256_lower 2012
x_reward0_state256_upper 999
x_reward0_state257_lower 11
x_reward0_state257_upper 0
x_reward0_state258_lower 8
x_reward0_state258_upper 8
x_reward0_state259_lower 7
x_reward0_state259_upper 7.0000000000013642e+00
x_reward0_state260_lower 1008
x_reward0_state260_upper 9.9899999999995634e+02
x_reward0_state261_lower 2009
x_reward0_state261_upper 0
x_reward0_state262_lower 3010
x_reward0_state262_upper 4
x_reward0_state263_lower 4011
x_reward0_state263_upper 8991
x_reward0_state264_lower 5005
x_reward0_state264_upper 3996
x_reward0_state265_lower 4004
x_reward0_state265_upper 4995
x_reward0_state266_lower 3003
x_reward0_state266_upper 5994
x_reward0_state267_lower 2002
x_reward0_state267_upper 6993
x_reward0_state268_lower 1001
x_reward0_state268_upper 7992
x_reward0_state269_lower 0
x_reward0_state269_upper 0
x_reward0_state270_lower 4013
x_reward0_state270_upper 9.9899999999999272e+02
x_reward0_state271_lower 3012
x_reward0_state271_upper 1.9979999999999927e+03
x_reward0_state272_lower 2011
x_reward0_state272_upper 2.9969999999999927e+03
x_reward0_state273_lower 1010
x_reward0_state273_upper 3.9959999999999927e+03
x_reward0_state274_lower 9
x_reward0_state274_upper 8.9999999999708962e+00
x_reward0_state275_lower 8
x_reward0_state275_upper 7.9999999999708962e+00
x_reward0_state276_lower 7
x_reward0_state276_upper 6.9999999999708962e+00
x_reward0_state277_lower 6
x_reward0_state277_upper 5.9999999999708962e+00
x_reward0_state278_lower 5
x_reward0_state278_upper 4.9999999999708962e+00
x_reward0_state279_lower 6
x_reward0_state279_upper 6.0000000000013642e+00
x_reward0_state280_lower 1007
x_reward0_state280_upper 1.0050000000000014e+03
x_reward0_state281_lower 6
x_reward0_state281_upper 2.0040000000000014e+03
x_reward0_state282_lower 1009
x_reward0_state282_upper 3.0030000000000014e+03
x_reward0_state283_lower 8
x_reward0_state283_upper 4.0020000000000014e+03
x_reward0_state284_lower 4004
x_reward0_state284_upper 0
x_reward0_state285_lower 2002
x_reward0_state285_upper 6993
x_reward0_state286_lower 0
x_reward0_state286_upper 8991
x_reward0_state287_lower 0
x_reward0_state287_upper 0
x_reward0_state288_lower 2011
x_reward0_state288_upper 2.9969999999999927e+03
x_reward0_state289_lower 9
x_reward0_state289_upper 4.9949999999999927e+03
x_reward0_state290_lower 0
x_reward0_state290_upper 0
x_reward0_state291_lower 0
x_reward0_state291_upper 1.0059999999999709e+03
x_reward0_state292_lower 4
x_reward0_state292_upper 3.9999999999708962e+00
x_reward0_state293_lower 4.9999999993178790e+00
x_reward0_state293_upper 4.9999999997739906e+00
x_reward0_state294_lower 2005
x_reward0_state294_upper 3.0030000000000014e+03
x_reward0_state295_lower 7001
x_reward0_state295_upper 5.0010000000000018e+03
x_reward0_state296_lower 3003
x_reward0_state296_upper 0
x_reward0_state297_lower 2002
x_reward0_state297_upper 0
x_reward0_state298_lower 1001
x_reward0_state298_upper 0
x_reward0_state299_lower 0
x_reward0_state299_upper 0
x_reward0_state300_lower 0
x_reward0_state300_upper 0
x_reward0_state301_lower 0
x_reward0_state301_upper 0
x_reward0_state302_lower 1010
x_reward0_state302_upper 0
x_reward0_state303_lower 0
x_reward0_state303_upper 0
x_reward0_state304_lower 0
x_reward0_state304_upper 0
x_reward0_state305_lower 0
x_reward0_state305_upper 0
x_reward0_state306_lower 0
x_reward0_state306_upper 0
x_reward0_state307_lower 3
x_reward0_state307_upper 2.9999999999708962e+00
x_reward0_state308_lower 3.9999999995452526e+00
x_reward0_state308_upper 3.9999999995466169e+00
x_reward0_state309_lower 2.9999999997726263e+00
x_reward0_state309_upper 2.9999999993192432e+00
x_reward0_state310_lower 1004
x_reward0_state310_upper 4.0020000000000014e+03
x_reward0_state311_lower 6000
x_reward0_state311_upper 6.0000000000000018e+03
x_reward0_state312_lower 0
x_reward0_state312_upper 0
x_reward0_state313_lower 1001
x_reward0_state313_upper 0
x_reward0_state314_lower 0
x_reward0_state314_upper 0
x_reward0_state315_lower 0
x_reward0_state315_upper 0
x_reward0_state316_lower 0
x_reward0_state316_upper 0
x_reward0_state317_lower 0
x_reward0_state317_upper 0
x_reward0_state318_lower 0
x_reward0_state318_upper 0
x_reward0_state319_lower 9
x_reward0_state319_upper 0
x_reward0_state320_lower 0
x_reward0_state320_upper 0
x_reward0_state321_lower 0
x_reward0_state321_upper 0
x_reward0_state322_lower 0
x_reward0_state322_upper 0
x_reward0_state323_lower 0
x_reward0_state323_upper 0
x_reward0_state324_lower 0
x_reward0_state324_upper 0
x_reward0_state325_lower 0
x_reward0_state325_upper 0
x_reward0_state326_lower 2
x_reward0_state326_upper 1.9999999999708962e+00
x_reward0_state327_lower 1
x_reward0_state327_upper 1
x_reward0_state328_lower 2
x_reward0_state328_upper 2
x_reward0_state329_lower 3
x_reward0_state329_upper 5.0010000000000018e+03
x_reward0_state330_lower 4004
x_reward0_state330_upper 6.0000000000000018e+03
x_reward0_state331_lower 5005
x_reward0_state331_upper 6.9990000000000018e+03
x_reward0_state332_lower 0
x_reward0_state332_upper 0
x_reward0_state333_lower 0
x_reward0_state333_upper 0
x_reward0_state334_lower 0
x_reward0_state334_upper 0
x_reward0_state335_lower 0
x_reward0_state335_upper 0
x_reward0_state336_lower 0
x_reward0_state336_upper 0
x_reward0_state337_lower 0
x_reward0_state337_upper 0
x_reward0_state338_lower 0
x_reward0_state338_upper 0
x_reward0_state339_lower 0
x_reward0_state339_upper 0
x_reward0_state340_lower 0
x_reward0_state340_upper 0
x_reward0_state341_lower 0
x_reward0_state341_upper 0
x_reward0_state342_lower 0
x_reward0_state342_upper 0
x_reward0_state343_lower 0
x_reward0_state343_upper 0
x_reward0_state344_lower 0
x_reward0_state344_upper 0
x_reward0_state345_lower 0
x_reward0_state345_upper 0
x_reward0_state346_lower 1
x_reward0_state346_upper 1
x_reward0_state347_lower 0
x_reward0_state347_upper 0
x_reward0_state348_lower 1001
x_reward0_state348_upper 0
x_reward0_state349_lower 2002
x_reward0_state349_upper 999
x_reward0_state350_lower 3003
x_reward0_state350_upper 0
x_reward0_state351_lower 4004
x_reward0_state351_upper 7.9980000000000018e+03
